n=214;
k_min=7;
k_max=7;
M=[| 159, 144, 137, 122, 143, 130, 161
 | 153, 150, 135, 122, 148, 125, 163
 | 152, 151, 134, 121, 148, 124, 166
 | 154, 147, 135, 122, 146, 127, 165
 | 153, 150, 136, 122, 147, 127, 163
 | 152, 148, 135, 123, 147, 128, 163
 | 153, 150, 136, 121, 146, 127, 163
 | 153, 150, 136, 122, 146, 128, 162
 | 156, 147, 137, 123, 145, 126, 163
 | 154, 148, 136, 121, 145, 128, 164
 | 152, 149, 135, 123, 147, 128, 162
 | 154, 147, 136, 121, 144, 129, 165
 | 152, 150, 135, 123, 147, 128, 162
 | 153, 149, 136, 121, 145, 129, 163
 | 152, 148, 136, 122, 144, 130, 164
 | 153, 149, 136, 121, 145, 129, 164
 | 154, 147, 137, 121, 143, 130, 164
 | 161, 146, 139, 121, 140, 129, 161
 | 160, 146, 139, 119, 141, 129, 162
 | 154, 147, 136, 121, 144, 128, 166
 | 154, 147, 136, 122, 144, 129, 164
 | 159, 147, 141, 121, 141, 129, 158
 | 155, 146, 137, 121, 143, 130, 165
 | 153, 147, 136, 121, 144, 129, 165
 | 155, 149, 137, 120, 144, 127, 164
 | 154, 148, 137, 121, 144, 129, 164
 | 155, 147, 136, 121, 145, 128, 165
 | 153, 148, 136, 121, 144, 129, 164
 | 152, 148, 136, 122, 144, 130, 164
 | 154, 148, 136, 121, 144, 128, 165
 | 153, 147, 137, 121, 143, 130, 165
 | 153, 149, 137, 121, 144, 129, 164
 | 154, 148, 137, 121, 144, 129, 164
 | 152, 149, 137, 122, 144, 130, 163
 | 154, 147, 137, 121, 143, 130, 165
 | 155, 148, 137, 120, 143, 128, 165
 | 158, 145, 137, 120, 142, 127, 166
 | 154, 147, 137, 121, 143, 130, 166
 | 163, 146, 141, 119, 138, 131, 159
 | 163, 146, 141, 119, 138, 131, 159
 | 154, 147, 137, 121, 143, 130, 165
 | 153, 148, 137, 121, 143, 130, 164
 | 155, 148, 137, 120, 143, 128, 166
 | 166, 145, 140, 118, 136, 132, 159
 | 154, 147, 137, 121, 143, 131, 164
 | 159, 145, 138, 120, 141, 129, 164
 | 156, 147, 138, 120, 142, 129, 164
 | 164, 146, 141, 118, 136, 132, 158
 | 162, 145, 141, 118, 136, 135, 159
 | 158, 146, 138, 120, 141, 129, 164
 | 164, 146, 142, 118, 135, 134, 157
 | 158, 145, 139, 119, 140, 130, 166
 | 158, 148, 140, 119, 140, 130, 161
 | 157, 148, 140, 119, 140, 131, 162
 | 157, 149, 140, 119, 140, 131, 161
 | 155, 149, 140, 120, 140, 134, 159
 | 153, 149, 136, 122, 145, 129, 163
 | 153, 148, 136, 121, 145, 129, 164
 | 153, 150, 135, 122, 147, 126, 163
 | 154, 148, 136, 121, 146, 127, 165
 | 158, 148, 139, 119, 142, 129, 162
 | 158, 146, 138, 121, 143, 129, 162
 | 164, 145, 139, 119, 138, 132, 160
 | 163, 146, 141, 119, 137, 132, 159
 | 164, 145, 140, 118, 137, 132, 160
 | 162, 146, 140, 118, 138, 131, 161
 | 161, 145, 141, 118, 136, 134, 160
 | 161, 145, 141, 118, 137, 135, 160
 | 161, 145, 141, 118, 136, 134, 161
 | 162, 146, 142, 118, 135, 135, 158
 | 152, 149, 136, 127, 149, 126, 158
 | 157, 145, 136, 123, 145, 127, 164
 | 151, 150, 134, 123, 148, 126, 163
 | 152, 149, 135, 122, 148, 126, 164
 | 152, 150, 135, 123, 148, 127, 162
 | 152, 150, 135, 123, 148, 127, 162
 | 154, 148, 135, 123, 147, 126, 163
 | 152, 148, 135, 123, 147, 127, 163
 | 154, 151, 136, 121, 147, 125, 163
 | 152, 148, 135, 124, 148, 128, 163
 | 152, 148, 135, 125, 148, 128, 162
 | 152, 151, 135, 122, 148, 126, 164
 | 153, 149, 135, 122, 147, 126, 164
 | 153, 149, 135, 123, 147, 127, 163
 | 150, 149, 134, 129, 153, 124, 157
 | 154, 149, 136, 121, 146, 127, 165
 | 153, 151, 135, 121, 147, 126, 163
 | 153, 148, 135, 122, 147, 126, 164
 | 153, 149, 135, 122, 147, 127, 164
 | 151, 149, 135, 124, 147, 129, 162
 | 158, 144, 137, 122, 142, 131, 163
 | 153, 149, 136, 121, 145, 128, 163
 | 154, 151, 137, 120, 144, 129, 162
 | 154, 151, 136, 120, 145, 127, 163
 | 152, 149, 136, 122, 146, 129, 163
 | 156, 146, 137, 121, 143, 128, 164
 | 158, 144, 138, 121, 141, 131, 164
 | 153, 148, 138, 122, 142, 133, 161
 | 154, 149, 137, 122, 143, 130, 161
 | 156, 148, 138, 120, 142, 130, 162
 | 155, 149, 139, 120, 142, 131, 161
 | 158, 145, 140, 121, 139, 135, 159
 | 155, 149, 142, 119, 138, 135, 157
 | 155, 147, 147, 123, 132, 143, 150
 | 157, 149, 147, 120, 132, 139, 153
 | 148, 143, 149, 126, 125, 166, 140
 | 146, 143, 146, 134, 133, 153, 142
 | 145, 144, 149, 132, 130, 155, 141
 | 148, 155, 166, 118, 124, 145, 141
 | 150, 151, 156, 121, 130, 145, 143
 | 147, 144, 150, 128, 129, 158, 141
 | 147, 144, 149, 129, 129, 158, 141
 | 147, 145, 152, 126, 127, 157, 141
 | 155, 147, 135, 122, 146, 127, 164
 | 156, 146, 136, 122, 145, 128, 163
 | 156, 147, 136, 122, 146, 127, 163
 | 156, 146, 136, 123, 146, 128, 163
 | 153, 147, 135, 125, 148, 126, 163
 | 153, 148, 135, 123, 147, 127, 163
 | 153, 148, 135, 123, 148, 126, 163
 | 156, 146, 136, 122, 145, 128, 164
 | 152, 149, 135, 123, 147, 127, 163
 | 153, 149, 135, 122, 147, 127, 164
 | 153, 148, 135, 123, 148, 126, 163
 | 156, 147, 136, 121, 144, 128, 164
 | 155, 146, 136, 122, 144, 129, 166
 | 155, 147, 137, 121, 144, 129, 164
 | 161, 152, 145, 117, 132, 133, 156
 | 160, 151, 144, 117, 134, 133, 156
 | 155, 156, 152, 118, 127, 140, 148
 | 154, 154, 157, 116, 124, 144, 146
 | 147, 148, 155, 125, 126, 155, 141
 | 155, 147, 135, 123, 147, 127, 163
 | 156, 145, 135, 123, 146, 126, 166
 | 154, 148, 135, 122, 147, 127, 164
 | 156, 146, 136, 122, 145, 128, 163
 | 154, 148, 136, 122, 145, 129, 163
 | 152, 148, 135, 123, 147, 128, 163
 | 151, 150, 135, 124, 148, 128, 161
 | 152, 149, 135, 123, 147, 128, 162
 | 153, 148, 135, 123, 147, 127, 164
 | 155, 148, 136, 121, 145, 128, 164
 | 152, 148, 136, 123, 146, 128, 163
 | 153, 148, 135, 123, 146, 127, 164
 | 155, 148, 138, 120, 142, 130, 163
 | 156, 146, 137, 122, 143, 130, 164
 | 157, 149, 138, 119, 143, 128, 162
 | 154, 148, 136, 121, 145, 127, 166
 | 155, 148, 136, 121, 145, 128, 165
 | 152, 146, 136, 123, 144, 132, 163
 | 154, 147, 136, 122, 145, 128, 164
 | 162, 146, 140, 120, 138, 130, 159
 | 158, 149, 140, 119, 142, 130, 160
 | 155, 148, 136, 121, 145, 127, 165
 | 156, 146, 137, 121, 143, 130, 164
 | 154, 148, 137, 120, 143, 129, 164
 | 156, 148, 137, 120, 143, 128, 165
 | 164, 146, 141, 118, 137, 131, 159
 | 157, 145, 137, 121, 142, 128, 166
 | 157, 145, 138, 121, 142, 129, 165
 | 157, 146, 138, 121, 141, 130, 164
 | 158, 148, 140, 119, 142, 130, 161
 | 161, 146, 139, 121, 140, 129, 161
 | 144, 144, 135, 143, 152, 130, 148
 | 166, 148, 145, 116, 130, 139, 153
 | 156, 144, 147, 121, 129, 151, 148
 | 154, 143, 146, 124, 130, 152, 147
 | 152, 149, 154, 121, 126, 152, 142
 | 153, 153, 150, 124, 130, 144, 143
 | 152, 152, 157, 120, 125, 149, 142
 | 150, 150, 158, 121, 123, 153, 141
 | 140, 139, 135, 166, 142, 134, 140
 | 140, 139, 135, 165, 143, 134, 140
 | 149, 149, 158, 121, 124, 154, 141
 | 160, 149, 144, 121, 133, 138, 152
 | 153, 151, 156, 118, 126, 149, 143
 | 166, 153, 144, 114, 133, 131, 156
 | 162, 152, 146, 114, 133, 133, 156
 | 162, 155, 144, 116, 136, 129, 155
 | 163, 154, 144, 115, 135, 130, 155
 | 149, 166, 139, 121, 144, 126, 151
 | 154, 166, 153, 117, 129, 134, 145
 | 151, 157, 158, 119, 126, 144, 142
 | 148, 154, 161, 120, 128, 143, 142
 | 145, 153, 144, 133, 144, 133, 145
 | 143, 147, 131, 135, 166, 123, 151
 | 145, 145, 134, 137, 158, 126, 151
 | 157, 146, 138, 120, 142, 129, 164
 | 152, 151, 144, 128, 135, 134, 152
 | 150, 150, 143, 130, 142, 131, 150
 | 156, 153, 143, 119, 141, 130, 153
 | 149, 166, 147, 123, 136, 132, 143
 | 149, 166, 147, 123, 134, 134, 143
 | 148, 166, 146, 124, 138, 132, 143
 | 148, 164, 146, 124, 139, 132, 143
 | 149, 165, 148, 123, 135, 135, 143
 | 150, 162, 149, 122, 133, 137, 143
 | 149, 165, 148, 123, 135, 133, 143
 | 149, 163, 148, 124, 135, 135, 143
 | 149, 164, 148, 124, 136, 132, 143
 | 148, 163, 146, 125, 139, 131, 144
 | 147, 147, 143, 136, 139, 140, 144
 | 148, 163, 146, 125, 139, 132, 144
 | 147, 164, 145, 126, 140, 131, 143
 | 149, 165, 147, 124, 137, 132, 143
 | 148, 164, 147, 124, 138, 132, 143
 | 148, 164, 147, 124, 138, 132, 143
 | 143, 153, 139, 138, 149, 130, 144
 | 149, 166, 149, 122, 132, 136, 142
 | 149, 162, 147, 125, 135, 136, 143
 | 148, 165, 146, 125, 139, 131, 143
 | 148, 163, 146, 125, 139, 133, 143
 | 148, 162, 146, 125, 139, 133, 144
 | 148, 163, 146, 125, 138, 133, 143 |];
 P=[7, 7, 7, 7, 7, 7, 7, 7, 7, 7, 7, 7, 7, 7, 7, 7, 7, 1, 7, 7, 7, 1, 7, 7, 7, 7, 7, 7, 7, 7, 7, 7, 7, 7, 7, 7, 7, 7, 1, 1, 7, 7, 7, 1, 7, 7, 7, 1, 1, 7, 1, 7, 7, 7, 7, 7, 7, 7, 7, 7, 7, 7, 1, 1, 1, 1, 1, 1, 1, 1, 7, 7, 7, 7, 7, 7, 7, 7, 7, 7, 7, 7, 7, 7, 7, 7, 7, 7, 7, 7, 7, 7, 7, 7, 7, 7, 7, 7, 7, 7, 7, 7, 7, 1, 1, 6, 6, 6, 3, 3, 6, 6, 6, 7, 7, 7, 7, 7, 7, 7, 7, 7, 7, 7, 7, 7, 7, 1, 1, 1, 3, 6, 7, 7, 7, 7, 7, 7, 7, 7, 7, 7, 7, 7, 7, 7, 7, 7, 7, 7, 7, 1, 7, 7, 7, 7, 7, 1, 7, 7, 7, 7, 1, 5, 1, 3, 3, 3, 3, 3, 3, 4, 4, 3, 1, 3, 1, 1, 1, 1, 2, 2, 3, 3, 2, 5, 5, 7, 1, 1, 2, 2, 2, 2, 2, 2, 2, 2, 2, 2, 2, 3, 2, 2, 2, 2, 2, 2, 2, 2, 2, 2, 2, 2 ];